%-----------------------------------------------------------------------------%
% Dual Arm Multi Capacity Multi Tool Scheduling / Routing
% Assembly Configuration
% Auto Generated by python script, authored by Johan Ludde Wessen 
%-----------------------------------------------------------------------------%


task_durations = [|23, 32, 28, 23, 22, 26, 28, 21, 22, 49, 43, 52, 52, 42, 57, 44, 50, 62, 29, 31, 30, 28, 33, 30, 27,  6,  8,  6,  6,  6,  7,  6,  4
                  |29, 31, 28, 22, 24, 26, 29, 25, 28, 50, 46, 48, 54, 50, 54, 49, 52, 55, 30, 30, 35, 36, 31, 27, 25,  5,  6,  7,  7,  6,  5,  6,  6
                  |];


TRAY_TASKS = 1..7;
CAMERA_TASKS = 19..25;
OUTPUT_TASKS = { 18 };


empty_gripper_tasks = 26..33;


gripper_pick_tasks_orders = [|8, 17, -1
|9, 18, -1
|];

suction_pick_tasks_orders = [|1, 19, 10, -1
|2, 20, 11, -1
|3, 21, 12, -1
|4, 22, 13, -1
|5, 23, 14, -1
|6, 24, 15, -1
|7, 25, 16, -1
|];

fixture_task_orders = [|10, 26, 11, 27, 12, 28, 13, 29, 8, -1
|14, 30, 15, 31, 16, 32, 17, 33, 9, -1
|];

